c "315139.clq"
p edge 100 1344
e 1 17
e 1 18
e 1 19
e 1 20
e 1 21
e 1 25
e 1 26
e 1 28
e 1 30
e 1 31
e 1 33
e 1 35
e 1 38
e 1 39
e 1 51
e 1 63
e 1 68
e 1 78
e 1 86
e 1 90
e 1 93
e 1 97
e 2 17
e 2 18
e 2 20
e 2 21
e 2 22
e 2 23
e 2 26
e 2 27
e 2 32
e 2 33
e 2 36
e 2 38
e 2 40
e 2 42
e 2 44
e 2 47
e 2 48
e 2 51
e 2 52
e 2 53
e 2 60
e 2 62
e 2 64
e 2 67
e 2 70
e 2 72
e 2 75
e 2 77
e 2 78
e 2 81
e 2 83
e 2 85
e 2 90
e 3 17
e 3 18
e 3 19
e 3 22
e 3 24
e 3 26
e 3 27
e 3 28
e 3 37
e 3 39
e 3 43
e 3 45
e 3 46
e 3 49
e 3 51
e 3 52
e 3 54
e 3 59
e 3 63
e 3 66
e 3 69
e 3 89
e 3 92
e 3 95
e 3 97
e 3 99
e 4 17
e 4 18
e 4 19
e 4 20
e 4 21
e 4 23
e 4 24
e 4 29
e 4 30
e 4 35
e 4 45
e 4 49
e 4 51
e 4 58
e 4 63
e 4 66
e 4 68
e 4 77
e 4 86
e 4 88
e 4 91
e 5 17
e 5 18
e 5 19
e 5 21
e 5 22
e 5 23
e 5 24
e 5 27
e 5 28
e 5 33
e 5 36
e 5 37
e 5 45
e 5 51
e 5 66
e 5 74
e 5 75
e 5 76
e 5 85
e 5 90
e 6 17
e 6 20
e 6 21
e 6 23
e 6 25
e 6 40
e 6 41
e 6 45
e 6 90
e 7 17
e 7 18
e 7 19
e 7 20
e 7 21
e 7 22
e 7 23
e 7 25
e 7 27
e 7 28
e 7 29
e 7 30
e 7 31
e 7 32
e 7 34
e 7 36
e 7 41
e 7 42
e 7 46
e 7 48
e 7 54
e 7 55
e 7 57
e 7 59
e 7 61
e 7 62
e 7 71
e 7 96
e 8 17
e 8 18
e 8 19
e 8 20
e 8 22
e 8 23
e 8 24
e 8 26
e 8 27
e 8 28
e 8 29
e 8 32
e 8 33
e 8 41
e 8 42
e 8 43
e 8 45
e 8 56
e 8 58
e 8 59
e 8 64
e 8 65
e 8 68
e 8 71
e 8 73
e 8 75
e 8 87
e 9 17
e 9 18
e 9 19
e 9 20
e 9 21
e 9 22
e 9 23
e 9 24
e 9 33
e 9 34
e 9 38
e 9 39
e 9 42
e 9 45
e 9 50
e 9 51
e 9 58
e 9 59
e 9 62
e 9 71
e 9 77
e 9 78
e 9 82
e 9 83
e 9 90
e 9 91
e 9 95
e 10 17
e 10 18
e 10 19
e 10 20
e 10 23
e 10 24
e 10 25
e 10 26
e 10 33
e 10 34
e 10 37
e 10 39
e 10 40
e 10 48
e 10 51
e 10 52
e 10 54
e 10 60
e 10 62
e 10 70
e 10 77
e 10 79
e 10 99
e 11 17
e 11 18
e 11 19
e 11 20
e 11 21
e 11 25
e 11 27
e 11 28
e 11 29
e 11 30
e 11 31
e 11 33
e 11 35
e 11 40
e 11 41
e 11 43
e 11 47
e 11 48
e 11 49
e 11 52
e 11 54
e 11 56
e 11 57
e 11 64
e 11 67
e 11 69
e 11 71
e 11 75
e 11 80
e 11 87
e 11 89
e 11 92
e 11 93
e 11 99
e 12 17
e 12 18
e 12 19
e 12 22
e 12 24
e 12 26
e 12 35
e 12 37
e 12 38
e 12 48
e 12 70
e 12 78
e 12 100
e 13 17
e 13 18
e 13 19
e 13 20
e 13 21
e 13 22
e 13 23
e 13 24
e 13 25
e 13 26
e 13 29
e 13 31
e 13 34
e 13 39
e 13 43
e 13 44
e 13 46
e 13 48
e 13 53
e 13 55
e 13 59
e 13 62
e 13 67
e 13 69
e 13 70
e 13 78
e 13 80
e 13 84
e 13 95
e 13 98
e 14 17
e 14 18
e 14 19
e 14 20
e 14 21
e 14 22
e 14 25
e 14 27
e 14 28
e 14 32
e 14 35
e 14 36
e 14 37
e 14 38
e 14 40
e 14 47
e 14 52
e 14 55
e 14 57
e 14 66
e 14 72
e 14 74
e 14 76
e 14 78
e 14 81
e 14 85
e 15 17
e 15 18
e 15 19
e 15 20
e 15 21
e 15 22
e 15 23
e 15 24
e 15 25
e 15 29
e 15 33
e 15 44
e 15 50
e 15 51
e 15 67
e 15 81
e 15 92
e 16 17
e 16 18
e 16 19
e 16 20
e 16 21
e 16 22
e 16 26
e 16 28
e 16 29
e 16 31
e 16 32
e 16 38
e 16 40
e 16 41
e 16 49
e 16 53
e 16 60
e 16 61
e 16 63
e 16 68
e 16 74
e 16 91
e 16 92
e 16 99
e 17 18
e 17 19
e 17 20
e 17 21
e 17 22
e 17 23
e 17 24
e 17 25
e 17 26
e 17 27
e 17 28
e 17 29
e 17 30
e 17 31
e 17 32
e 17 34
e 17 35
e 17 36
e 17 37
e 17 39
e 17 41
e 17 42
e 17 43
e 17 45
e 17 46
e 17 47
e 17 50
e 17 52
e 17 53
e 17 55
e 17 59
e 17 61
e 17 64
e 17 65
e 17 67
e 17 68
e 17 72
e 17 73
e 17 76
e 17 77
e 17 79
e 17 81
e 17 82
e 17 85
e 17 87
e 17 88
e 17 89
e 17 90
e 17 96
e 17 97
e 18 19
e 18 20
e 18 21
e 18 22
e 18 23
e 18 24
e 18 25
e 18 26
e 18 27
e 18 28
e 18 29
e 18 30
e 18 31
e 18 34
e 18 36
e 18 37
e 18 39
e 18 41
e 18 44
e 18 45
e 18 47
e 18 49
e 18 52
e 18 54
e 18 57
e 18 60
e 18 61
e 18 62
e 18 63
e 18 64
e 18 66
e 18 69
e 18 70
e 18 72
e 18 73
e 18 79
e 18 80
e 18 81
e 18 82
e 18 86
e 18 87
e 18 88
e 18 92
e 18 96
e 18 97
e 19 20
e 19 21
e 19 22
e 19 23
e 19 24
e 19 25
e 19 26
e 19 27
e 19 30
e 19 31
e 19 32
e 19 35
e 19 36
e 19 37
e 19 38
e 19 42
e 19 43
e 19 45
e 19 46
e 19 50
e 19 52
e 19 54
e 19 60
e 19 61
e 19 62
e 19 68
e 19 72
e 19 74
e 19 75
e 19 76
e 19 79
e 19 80
e 19 88
e 19 96
e 19 97
e 19 98
e 20 21
e 20 22
e 20 23
e 20 24
e 20 25
e 20 26
e 20 27
e 20 28
e 20 29
e 20 30
e 20 31
e 20 32
e 20 33
e 20 34
e 20 35
e 20 36
e 20 38
e 20 39
e 20 40
e 20 41
e 20 42
e 20 44
e 20 47
e 20 54
e 20 55
e 20 58
e 20 64
e 20 65
e 20 67
e 20 74
e 20 77
e 20 78
e 20 79
e 20 82
e 20 83
e 20 84
e 20 91
e 20 92
e 20 93
e 20 95
e 20 99
e 21 22
e 21 23
e 21 24
e 21 25
e 21 27
e 21 28
e 21 29
e 21 30
e 21 31
e 21 32
e 21 33
e 21 34
e 21 36
e 21 37
e 21 38
e 21 41
e 21 42
e 21 43
e 21 44
e 21 45
e 21 46
e 21 50
e 21 51
e 21 53
e 21 54
e 21 55
e 21 60
e 21 62
e 21 65
e 21 69
e 21 71
e 21 72
e 21 73
e 21 74
e 21 77
e 21 80
e 21 82
e 21 83
e 21 84
e 21 87
e 22 23
e 22 24
e 22 25
e 22 26
e 22 27
e 22 28
e 22 30
e 22 33
e 22 34
e 22 35
e 22 36
e 22 37
e 22 38
e 22 39
e 22 41
e 22 43
e 22 47
e 22 52
e 22 53
e 22 55
e 22 56
e 22 59
e 22 62
e 22 64
e 22 67
e 22 68
e 22 72
e 22 81
e 22 83
e 22 84
e 22 86
e 22 87
e 22 88
e 22 91
e 22 94
e 22 97
e 22 99
e 22 100
e 23 24
e 23 25
e 23 26
e 23 27
e 23 28
e 23 29
e 23 30
e 23 31
e 23 32
e 23 33
e 23 34
e 23 36
e 23 37
e 23 40
e 23 43
e 23 49
e 23 50
e 23 54
e 23 55
e 23 57
e 23 58
e 23 59
e 23 61
e 23 65
e 23 67
e 23 75
e 23 77
e 23 79
e 23 81
e 23 94
e 23 96
e 24 25
e 24 26
e 24 27
e 24 29
e 24 31
e 24 32
e 24 33
e 24 34
e 24 35
e 24 38
e 24 39
e 24 40
e 24 41
e 24 42
e 24 43
e 24 44
e 24 46
e 24 52
e 24 53
e 24 58
e 24 59
e 24 63
e 24 66
e 24 67
e 24 69
e 24 74
e 24 76
e 24 77
e 24 80
e 24 82
e 24 83
e 24 87
e 24 94
e 24 97
e 24 98
e 25 26
e 25 27
e 25 28
e 25 29
e 25 30
e 25 31
e 25 32
e 25 35
e 25 36
e 25 37
e 25 38
e 25 40
e 25 43
e 25 44
e 25 45
e 25 47
e 25 48
e 25 50
e 25 56
e 25 57
e 25 67
e 25 68
e 25 71
e 25 74
e 25 75
e 25 76
e 25 77
e 25 78
e 25 87
e 25 90
e 25 92
e 25 95
e 25 96
e 26 30
e 26 32
e 26 33
e 26 37
e 26 39
e 26 40
e 26 41
e 26 42
e 26 44
e 26 47
e 26 48
e 26 49
e 26 55
e 26 58
e 26 62
e 26 63
e 26 65
e 26 68
e 26 69
e 26 70
e 26 72
e 26 74
e 26 75
e 26 85
e 26 87
e 26 89
e 26 93
e 26 96
e 26 97
e 27 28
e 27 29
e 27 30
e 27 31
e 27 32
e 27 33
e 27 34
e 27 35
e 27 36
e 27 39
e 27 40
e 27 41
e 27 45
e 27 46
e 27 47
e 27 49
e 27 50
e 27 53
e 27 54
e 27 56
e 27 58
e 27 59
e 27 60
e 27 63
e 27 64
e 27 67
e 27 75
e 27 81
e 27 85
e 27 89
e 27 94
e 27 96
e 27 99
e 28 29
e 28 30
e 28 31
e 28 32
e 28 33
e 28 34
e 28 35
e 28 36
e 28 37
e 28 38
e 28 39
e 28 40
e 28 44
e 28 45
e 28 48
e 28 57
e 28 58
e 28 61
e 28 62
e 28 65
e 28 67
e 28 69
e 28 71
e 28 72
e 28 75
e 28 83
e 28 88
e 28 91
e 28 94
e 28 98
e 28 100
e 29 30
e 29 35
e 29 37
e 29 38
e 29 39
e 29 43
e 29 45
e 29 46
e 29 49
e 29 50
e 29 53
e 29 54
e 29 57
e 29 61
e 29 63
e 29 64
e 29 65
e 29 67
e 29 68
e 29 73
e 29 76
e 29 78
e 29 79
e 29 84
e 29 94
e 29 96
e 30 31
e 30 35
e 30 40
e 30 41
e 30 42
e 30 47
e 30 55
e 30 57
e 30 59
e 30 71
e 30 79
e 30 80
e 30 87
e 30 91
e 30 95
e 30 99
e 30 100
e 31 32
e 31 34
e 31 35
e 31 39
e 31 41
e 31 43
e 31 44
e 31 50
e 31 52
e 31 53
e 31 57
e 31 66
e 31 70
e 31 78
e 31 84
e 31 85
e 31 91
e 32 34
e 32 38
e 32 40
e 32 41
e 32 42
e 32 43
e 32 44
e 32 48
e 32 50
e 32 51
e 32 52
e 32 53
e 32 58
e 32 60
e 32 61
e 32 65
e 32 73
e 32 77
e 32 80
e 32 88
e 32 91
e 32 92
e 32 94
e 32 98
e 33 34
e 33 46
e 33 47
e 33 50
e 33 51
e 33 52
e 33 56
e 33 60
e 33 63
e 33 66
e 33 68
e 33 70
e 33 71
e 33 77
e 33 79
e 33 82
e 33 83
e 33 89
e 33 93
e 34 36
e 34 46
e 34 49
e 34 55
e 34 57
e 34 64
e 34 68
e 34 76
e 34 84
e 34 99
e 35 36
e 35 37
e 35 40
e 35 42
e 35 51
e 35 55
e 35 56
e 35 65
e 35 67
e 35 70
e 35 86
e 35 91
e 35 93
e 35 94
e 36 43
e 36 44
e 36 45
e 36 47
e 36 48
e 36 53
e 36 54
e 36 56
e 36 63
e 36 72
e 36 73
e 36 76
e 36 78
e 36 80
e 36 81
e 36 82
e 36 85
e 36 88
e 36 89
e 36 90
e 36 98
e 37 38
e 37 39
e 37 42
e 37 44
e 37 46
e 37 48
e 37 49
e 37 50
e 37 51
e 37 54
e 37 55
e 37 58
e 37 60
e 37 61
e 37 71
e 37 72
e 37 80
e 37 84
e 37 85
e 37 86
e 37 89
e 37 93
e 37 100
e 38 45
e 38 46
e 38 50
e 38 57
e 38 61
e 38 63
e 38 68
e 38 71
e 38 91
e 38 93
e 38 94
e 38 95
e 39 42
e 39 46
e 39 49
e 39 55
e 39 57
e 39 60
e 39 61
e 39 62
e 39 65
e 39 66
e 39 69
e 39 74
e 39 75
e 39 77
e 39 78
e 39 81
e 39 84
e 39 86
e 39 99
e 40 42
e 40 48
e 40 52
e 40 54
e 40 57
e 40 59
e 40 60
e 40 64
e 40 66
e 40 72
e 40 73
e 40 82
e 40 83
e 40 87
e 40 93
e 40 94
e 41 46
e 41 48
e 41 52
e 41 56
e 41 58
e 41 59
e 41 61
e 41 64
e 41 80
e 41 81
e 41 82
e 41 90
e 41 92
e 41 94
e 41 97
e 42 43
e 42 44
e 42 49
e 42 53
e 42 56
e 42 70
e 42 73
e 42 81
e 42 84
e 42 86
e 42 89
e 42 90
e 42 95
e 42 96
e 42 98
e 43 44
e 43 47
e 43 51
e 43 56
e 43 69
e 43 70
e 43 74
e 43 79
e 43 88
e 43 95
e 44 46
e 44 47
e 44 49
e 44 50
e 44 54
e 44 56
e 44 58
e 44 60
e 44 62
e 44 64
e 44 66
e 44 70
e 44 86
e 44 100
e 45 48
e 45 51
e 45 52
e 45 67
e 46 47
e 46 49
e 46 50
e 46 51
e 46 56
e 46 64
e 46 65
e 46 66
e 46 68
e 46 70
e 46 71
e 46 72
e 46 74
e 46 76
e 46 78
e 46 79
e 46 82
e 46 84
e 46 86
e 46 89
e 46 91
e 46 98
e 46 100
e 47 48
e 47 53
e 47 61
e 47 64
e 47 69
e 47 73
e 47 77
e 47 79
e 47 83
e 48 49
e 48 58
e 48 91
e 48 92
e 49 53
e 49 55
e 49 57
e 49 58
e 49 65
e 49 73
e 49 74
e 49 76
e 49 78
e 49 90
e 49 94
e 49 98
e 50 59
e 50 71
e 50 80
e 50 83
e 50 89
e 50 94
e 51 53
e 51 56
e 51 66
e 51 68
e 51 69
e 51 77
e 51 80
e 51 87
e 51 89
e 51 96
e 51 100
e 52 56
e 52 60
e 52 70
e 52 83
e 52 98
e 53 54
e 53 55
e 53 56
e 53 61
e 53 62
e 53 63
e 53 81
e 53 82
e 53 87
e 53 89
e 53 90
e 53 95
e 53 97
e 53 99
e 53 100
e 54 63
e 54 66
e 54 72
e 54 75
e 54 78
e 54 86
e 54 88
e 55 58
e 55 60
e 55 64
e 55 65
e 55 68
e 55 69
e 55 77
e 55 79
e 55 85
e 55 90
e 55 97
e 56 57
e 56 59
e 56 61
e 56 65
e 56 67
e 56 69
e 56 70
e 56 73
e 56 75
e 56 81
e 56 82
e 56 91
e 56 92
e 57 62
e 57 63
e 57 72
e 57 75
e 57 79
e 57 95
e 58 59
e 58 73
e 58 82
e 58 88
e 59 60
e 59 62
e 59 66
e 59 71
e 59 99
e 60 65
e 60 81
e 60 86
e 60 88
e 60 93
e 60 97
e 61 73
e 61 85
e 61 93
e 61 94
e 62 63
e 62 79
e 62 85
e 62 86
e 62 95
e 63 83
e 63 85
e 63 87
e 63 88
e 64 66
e 64 70
e 64 71
e 64 75
e 64 76
e 64 89
e 64 90
e 64 97
e 65 73
e 65 80
e 65 84
e 65 91
e 65 93
e 65 99
e 66 69
e 66 71
e 66 72
e 66 73
e 66 74
e 66 79
e 66 84
e 66 88
e 66 90
e 66 96
e 67 69
e 67 74
e 67 75
e 67 82
e 67 84
e 67 94
e 69 76
e 69 83
e 69 85
e 69 92
e 69 95
e 69 99
e 70 90
e 70 95
e 70 98
e 71 76
e 71 78
e 71 81
e 71 82
e 71 83
e 71 87
e 71 91
e 71 95
e 72 74
e 72 86
e 72 94
e 72 96
e 72 100
e 73 76
e 73 80
e 73 85
e 73 86
e 73 92
e 73 100
e 74 76
e 74 96
e 74 98
e 74 100
e 75 98
e 75 99
e 76 80
e 76 83
e 76 85
e 76 96
e 77 86
e 77 89
e 77 92
e 79 92
e 79 93
e 79 100
e 80 95
e 80 98
e 81 84
e 81 99
e 82 84
e 82 87
e 82 88
e 82 93
e 83 93
e 83 96
e 86 98
e 87 88
e 87 89
e 88 97
e 90 97
e 91 92
e 91 98
e 92 93
e 92 100
e 94 100
e 95 97
e 96 100
